NAME : dantzig42.2439.tour
COMMENT : Cost = 0_2439
COMMENT : Found by LKH [Keld Helsgaun] Thu Nov 16 16:23:51 2017
TYPE : TOUR
DIMENSION : 61
TOUR_SECTION
1
41
61
33
32
31
30
29
28
21
20
19
18
16
15
14
13
17
22
23
11
12
10
60
24
27
26
59
25
58
36
57
34
56
35
55
9
54
6
53
8
52
7
51
37
50
5
49
38
48
3
47
4
46
39
45
40
44
2
43
42
-1
EOF
